100 151650
1 63 33 15 10 2 77 62 28 27 97 46 35 88 91 95 50 53 73 24 52 74 80 29 31 47 100 68 61 8 64 7 14 93 30 45 96 82 51 23 13 54 34 36 83 17 5 32 44 58 25 20 22 92 85 41 11 48 89 99 43 21 84 59 19 57 86 72 75 67 79 49 55 42 3 40 65 60 98 81 87 56 6 78 12 16 9 39 90 94 76 18 38 71 37 26 70 69 4 66 
